539,360
736,235
776,219
769,285
1006,457
937,489
745,605
755,634
269,705
945,770
1020,745
1137,554
880,470
708,459
450,860
521,487
672,434
716,454
738,388
736,235
727,110
681,16
738,388
740,415
716,454
494,501
745,605
1081,610
948,542
937,489
945,770
858,753
681,706
708,459
769,285
1045,142
539,360
